NAME : F4.233861842.tour
COMMENT : Cost = 0_233861842
COMMENT : Found by LKH [Keld Helsgaun] Sun Sep 10 07:53:57 2017
TYPE : TOUR
DIMENSION : 64
TOUR_SECTION
1
32
34
59
45
55
44
60
61
33
50
51
6
27
17
12
64
57
37
53
41
40
36
20
16
26
11
24
29
18
23
10
63
47
38
39
46
54
52
49
43
22
25
19
4
8
28
9
15
14
7
62
56
48
42
58
35
30
3
13
5
31
21
2
-1
EOF
